%chk=23.chk
%nprocshared=16
#p freq pbepbe/6-311++g(3df,3pd) geom=connectivity

G3 HOF calculation for No.23

0 1
 C                  0.00000000    0.00000000    0.00000000
 O                 -1.22160673   -0.00000000    0.00000000
 C                  0.89029867    1.23812952    0.00000000
 C                  0.89029867   -1.23812952    0.00000000
 C                  2.28615944   -0.70101291    0.31523458
 C                  2.28615944    0.70101291   -0.31523458
 H                  0.85494858    1.67229983    1.00795166
 H                  0.85494858   -1.67229983   -1.00795166
 H                  0.50606339    1.99219074   -0.69182814
 H                  0.50606339   -1.99219074    0.69182814
 H                  2.41946865   -0.61665208    1.39986612
 H                  2.41946865    0.61665208   -1.39986612
 H                  3.08979239   -1.33711195   -0.06523403
 H                  3.08979239    1.33711195    0.06523403

 1 2 2.0 3 1.0 4 1.0
 2
 3 6 1.0 7 1.0 9 1.0
 4 5 1.0 8 1.0 10 1.0
 5 6 1.0 11 1.0 13 1.0
 6 12 1.0 14 1.0
 7
 8
 9
 10
 11
 12
 13
 14

