%chk=26.chk
%nprocshared=16
#p freq pbepbe/6-311++g(3df,3pd) geom=connectivity

G3 HOF calculation for No.26

0 1
 S                  0.00000000    0.00000000    0.00000000
 O                  0.00000000    0.72262275   -1.27752534
 O                  0.00000000    0.72262275    1.27752534
 C                  1.40092454   -1.10219651    0.00000000
 C                 -1.40092454   -1.10219651    0.00000000
 H                  2.28806351   -0.46644473   -0.00000000
 H                 -2.28806351   -0.46644473    0.00000000
 H                  1.38615617   -1.71694977    0.90067383
 H                  1.38615617   -1.71694977   -0.90067383
 H                 -1.38615617   -1.71694977    0.90067383
 H                 -1.38615617   -1.71694977   -0.90067383

 1 2 2.0 3 2.0 4 1.0 5 1.0
 2
 3
 4 6 1.0 8 1.0 9 1.0
 5 7 1.0 10 1.0 11 1.0
 6
 7
 8
 9
 10
 11

