%chk=67.chk
%nprocshared=16
#p freq pbepbe/6-311++g(3df,3pd) geom=connectivity

G3 HOF calculation for No.67

0 1
 P                  0.00000000    0.00000000    0.00000000
 Cl                 0.00000000    0.00000000    2.13884725
 Cl                 2.03781661    0.00000000    0.00000000
 Cl                 0.00000000    0.00000000   -2.13884725
 Cl                -1.01890830   -1.76480095    0.00000000
 Cl                -1.01890830    1.76480095    0.00000000

 1 2 1.0 3 1.0 4 1.0 5 1.0 6 1.0
 2
 3
 4
 5
 6

