%chk=68.chk
%nprocshared=16
#p freq pbepbe/6-311++g(3df,3pd) geom=connectivity

G3 HOF calculation for No.68

0 1
 S                  0.00000000    0.00000000    0.00000000
 O                  0.67789477   -1.27672725    0.00000000
 O                  0.67789477    1.27672725    0.00000000
 Cl                -1.30833684   -0.00000000    1.57192854
 Cl                -1.30833684   -0.00000000   -1.57192854

 1 2 2.0 3 2.0 4 1.0 5 1.0
 2
 3
 4
 5

