%chk=74.chk
%nprocshared=16
#p freq pbepbe/6-311++g(3df,3pd) geom=connectivity

G3 HOF calculation for No.74

0 2
 C                  0.00000000    0.00000000    0.00000000
 F                  1.26448298    0.00000000   -0.40315514
 F                 -0.63224149   -1.09507438   -0.40315514
 F                 -0.63224149    1.09507438   -0.40315514

 1 2 1.0 3 1.0 4 1.0
 2
 3
 4

