%chk=75.chk
%nprocshared=16
#p freq pbepbe/6-311++g(3df,3pd) geom=connectivity

G3 HOF calculation for No.75

0 2
 C                  0.00000000    0.00000000    0.00000000
 C                  2.67298593    0.00000000    0.00000000
 C                  0.61805517   -1.20526905    0.00000000
 C                  0.61805517    1.20526905    0.00000000
 C                  1.99085842   -1.18863703    0.00000000
 C                  1.99085842    1.18863703    0.00000000
 H                  3.75872114    0.00000000    0.00000000
 H                  0.06403629   -2.13855926    0.00000000
 H                  0.06403629    2.13855926    0.00000000
 H                  2.53803881   -2.12812231    0.00000000
 H                  2.53803881    2.12812231    0.00000000

 1 3 2.0 4 2.0
 2 5 2.0 6 2.0 7 1.0
 3 5 2.0 8 1.0
 4 6 2.0 9 1.0
 5 10 1.0
 6 11 1.0
 7
 8
 9
 10
 11

