%chk=9.chk
%nprocshared=16
#p freq pbepbe/6-311++g(3df,3pd) geom=connectivity

G3 HOF calculation for No.9

0 1
 C                  0.76256830    0.00000000    0.00000000
 C                 -0.76256830   -0.00000000    0.00000000
 C                  1.36632466    1.40070508    0.00000000
 C                 -1.36632466   -1.40070508    0.00000000
 C                  2.89102435    1.38722627    0.00000000
 C                 -2.89102435   -1.38722627    0.00000000
 H                  1.12560639   -0.55020975    0.87843566
 H                  1.12560639   -0.55020975   -0.87843566
 H                 -1.12560639    0.55020975    0.87843566
 H                 -1.12560639    0.55020975   -0.87843566
 H                  1.00266623    1.94911052    0.87764340
 H                  1.00266623    1.94911052   -0.87764340
 H                 -1.00266623   -1.94911052    0.87764340
 H                 -1.00266623   -1.94911052   -0.87764340
 H                  3.27585515    0.86936753   -0.88364317
 H                  3.27585515    0.86936753    0.88364317
 H                 -3.27585515   -0.86936753   -0.88364317
 H                 -3.27585515   -0.86936753    0.88364317
 H                  3.30138044    2.40100503    0.00000000
 H                 -3.30138044   -2.40100503    0.00000000

 1 2 1.0 3 1.0 7 1.0 8 1.0
 2 4 1.0 9 1.0 10 1.0
 3 5 1.0 11 1.0 12 1.0
 4 6 1.0 13 1.0 14 1.0
 5 15 1.0 16 1.0 19 1.0
 6 17 1.0 18 1.0 20 1.0
 7
 8
 9
 10
 11
 12
 13
 14
 15
 16
 17
 18
 19
 20

